Solver command line: ['C:\\Program Files\\gurobi1102\\win64\\bin\\gurobi.bat']

Set parameter Username
Academic license - for non-commercial use only - expires 2025-07-11
Read LP format model from file C:\Users\PAULWI~1\AppData\Local\Temp\tmpf0lho4hm.pyomo.lp
Reading time = 0.21 seconds
objective: 15961 rows, 15119 columns, 35937 nonzeros
Set parameter TimeLimit to value 200
Set parameter MIPGap to value 0.01
Gurobi Optimizer version 11.0.2 build v11.0.2rc0 (win64 - Windows 10.0 (19045.2))

CPU model: Intel(R) Xeon(R) CPU E5-1607 v2 @ 3.00GHz, instruction set [SSE2|AVX]
Thread count: 4 physical cores, 4 logical processors, using up to 4 threads

Optimize a model with 15961 rows, 15119 columns and 35937 nonzeros
Model fingerprint: 0xc4ff891c
Model has 167 quadratic constraints
Variable types: 13104 continuous, 2015 integer (1680 binary)
Coefficient statistics:
  Matrix range     [6e-03, 1e+03]
  QMatrix range    [1e+00, 1e+00]
  Objective range  [4e+01, 3e+02]
  Bounds range     [1e+00, 3e+00]
  RHS range        [4e-04, 1e+04]
Presolve removed 14558 rows and 13650 columns
Presolve time: 0.16s
Presolved: 1403 rows, 1469 columns, 4298 nonzeros
Variable types: 968 continuous, 501 integer (501 binary)
Found heuristic solution: objective 1230646.7167

Root relaxation: objective 5.142502e+05, 523 iterations, 0.01 seconds (0.00 work units)

    Nodes    |    Current Node    |     Objective Bounds      |     Work
 Expl Unexpl |  Obj  Depth IntInf | Incumbent    BestBd   Gap | It/Node Time

     0     0 514250.240    0   13 1230646.72 514250.240  58.2%     -    0s
H    0     0                    518958.74213 514250.240  0.91%     -    0s

Explored 1 nodes (623 simplex iterations) in 0.22 seconds (0.08 work units)
Thread count was 4 (of 4 available processors)

Solution count 2: 518959 1.23065e+06 

Optimal solution found (tolerance 1.00e-02)
Best objective 5.189587421316e+05, best bound 5.142502400109e+05, gap 0.9073%

